WARNING: for repeatability, setting FPU to use double precision
============================[ Problem Statistics ]=============================
|                                                                             |
|  Number of variables:            50                                         |
|  Number of clauses:             218                                         |
|  Parse time:                   0.00 s                                       |
|                                                                             |
============================[ Search Statistics ]==============================
| Conflicts |          ORIGINAL         |          LEARNT          | Progress |
|           |    Vars  Clauses Literals |    Limit  Clauses Lit/Cl |          |
===============================================================================
===============================================================================
restarts              : 1
conflicts             : 46             (31812 /sec)
decisions             : 61             (0.00 % random) (42185 /sec)
propagations          : 752            (520055 /sec)
conflict literals     : 218            (13.83 % deleted)
Memory used           : 20.00 MB
CPU time              : 0.001446 s

SATISFIABLE
